s td 572 8 616
b 1 81 257 274
b 2 85 146 386
b 3 105 177 409
b 4 55 141 446
b 5 142 170 429
b 6 166 335 565
b 7 168 282 411
b 8 240 415 542
b 9 53 268 611
b 10 279 349 447
b 11 195 301 315
b 12 4 118 314
b 13 150 347 379
b 14 150 379 522
b 15 58 368 403
b 16 274 286 402
b 17 34 58
b 18 231 282
b 19 170 187
b 20 144 440 448
b 21 228 349
b 22 165 471 478
b 23 111 473 501
b 24 33 399 509
b 25 131 460 520
b 26 231 522
b 27 231 468
b 28 424 565
b 29 311 369 569
b 30 164 594 615
b 31 4 118 550
b 32 8 432 540
b 33 13 232 288
b 34 16 153 435 549
b 35 24 505 547
b 36 32 90 245
b 37 33 34 399
b 38 34 399 418
b 39 37 384 475
b 40 41 459 586
b 41 52 356 581
b 42 53 187 611
b 43 55 446 500
b 44 64 80 422
b 45 82 148 366
b 46 148 157 366
b 47 90 245 378
b 48 93 418 459
b 49 76 102 229
b 50 104 179 483
b 51 111 501 574
b 52 67 501 574
b 53 67 330 574
b 54 118 140 550
b 55 124 140 433
b 56 3 127 404
b 57 131 460 590
b 58 255 460 590
b 59 136 254 321
b 60 254 321 360
b 61 146 298 386
b 62 153 276 435
b 63 157 366 575
b 64 160 271 422
b 65 164 383 594
b 66 143 383 594
b 67 143 365 383
b 68 165 241 478
b 69 88 114 173
b 70 177 409 580
b 71 409 580 589
b 72 62 187 611
b 73 62 78 611
b 74 62 78 544
b 75 544 597
b 76 597 605
b 77 195 315 380
b 78 196 397 570
b 79 103 198 404
b 80 49 204 250
b 81 9 21 208 424
b 82 222 316 534
b 83 189 227 254
b 84 95 228 269
b 85 76 229 313
b 86 103 233 312
b 87 155 245 378
b 88 246 395 588
b 89 189 254 360
b 90 189 360 496
b 91 255 512 590
b 92 243 257 274
b 93 147 262 295
b 94 147 295 445
b 95 264 547 591
b 96 266 505 552
b 97 144 271 422
b 98 243 274 286
b 99 115 278 485
b 100 39 243 286
b 101 183 297 343
b 102 56 133 172 304
b 103 92 311 369
b 104 28 103 312
b 105 76 205 313
b 106 315 380 541
b 107 328 329 331
b 108 344 557 576
b 109 45 108 345
b 110 108 362 551
b 111 365 383 542
b 112 232 366 575
b 113 232 573 575
b 114 232 288 573
b 115 92 205 369
b 116 155 378 485
b 117 115 155 485
b 118 281 383 542
b 119 159 298 386
b 120 159 238 275 298
b 121 234 275 298
b 122 74 234 298
b 123 108 395 588
b 124 210 399 418
b 125 35 415 542
b 126 398 421 481
b 127 398 481 554
b 128 64 144 422
b 129 425 428 437
b 130 288 432 540
b 131 276 435 533
b 132 265 276 533
b 133 60 265 276
b 134 60 276 389
b 135 60 389 495
b 136 389 431 495
b 137 117 247 442
b 138 236 446 500
b 139 144 331 448
b 140 109 461 573
b 141 241 356 478
b 142 144 479 566
b 143 179 483 554
b 144 431 457 495
b 145 29 189 496
b 146 22 521 576
b 147 316 534 541
b 148 475 484 537
b 149 288 540 582
b 150 109 288 573 582
b 151 288 573 582
b 152 35 281 542
b 153 35 171 281 526
b 154 171 192 281
b 155 192 281 512
b 156 192 512 548
b 157 512 548 590
b 158 179 398 554
b 159 45 494 560
b 160 48 566 567
b 161 63 306 568
b 162 260 573 582
b 163 125 330 574
b 164 180 580 589
b 165 180 464 589
b 166 156 180 464
b 167 156 325 464
b 168 260 326 582
b 169 125 548 590
b 170 132 296 605
b 171 505 586 616
b 172 1 129 230 452
b 173 3 103 250 404
b 174 28 103 175 250
b 175 103 175 250 404
b 176 49 175 250 404
b 177 49 175 185
b 178 175 185 423
b 179 5 423 562
b 180 5 363 401 562
b 181 9 21 424 468
b 182 21 22 424 468
b 183 20 115 260 324
b 184 25 65 343 591
b 185 39 121 243 308
b 186 121 243 308 600
b 187 243 308 405 600
b 188 44 392 438 527
b 189 45 108 361 494
b 190 50 94 191 484
b 191 12 27 54 203
b 192 40 56 133 172
b 193 40 68 133 172
b 194 40 68 133 377
b 195 40 68 377 546
b 196 40 299 546
b 197 299 506 546
b 198 209 299 506
b 199 209 353 506
b 200 57 248 359 587
b 201 61 167 277 613
b 202 64 144 184 531
b 203 71 353 510 539
b 204 353 510 539 543
b 205 209 353 539 543
b 206 119 209 539
b 207 27 73 123 218
b 208 74 145 234 559
b 209 59 145 234 559
b 210 59 145 199 234
b 211 145 182 199
b 212 182 199 493
b 213 182 493 514
b 214 120 493 514
b 215 120 514 561
b 216 76 205 217 419
b 217 77 207 283 376
b 218 87 355 385 502
b 219 341 355 385 502
b 220 88 114 294 462
b 221 2 63 144 205 394 419 489 499
b 222 63 144 205 384 394 419 489 584
b 223 144 205 326 384 419 500 584 586
b 224 23 106 144 291 326 500 584 586
b 225 23 106 144 210 291 326 584 586
b 226 23 106 144 210 291 326 586 599
b 227 23 106 144 210 291 326 390 599
b 228 36 106 144 210 291 326 390 599
b 229 36 144 210 326 390 599 607
b 230 36 144 179 210 224 326 607
b 231 14 108 144 178 179 210 224
b 232 14 29 108 178 179 224
b 233 14 29 107 108 178 224
b 234 14 29 107 178 224 595
b 235 29 107 224 272 595
b 236 6 29 107 272
b 237 14 107 178 439 595
b 238 137 178 439 595
b 239 14 178 382 439
b 240 14 29 107 108 525
b 241 29 179 189 224
b 242 14 108 144 178 210 531
b 243 14 108 144 178 184 531
b 244 14 108 178 184 531 572
b 245 14 108 110 178 184 572
b 246 110 178 572 614
b 247 110 302 538 572 614
b 248 110 302 536 538 614
b 249 110 197 302 536 538
b 250 10 110 197 536 538
b 251 10 197 492 536 538
b 252 10 197 441 492 536
b 253 10 287 441 492
b 254 10 197 338 492 538
b 255 197 327 338 538
b 256 17 197 302 536 538
b 257 253 302 536 614
b 258 31 302 538 572 614
b 259 31 302 309 538
b 260 31 302 410 614
b 261 14 108 110 140 184 572
b 262 14 99 108 110 140
b 263 11 14 99 110 140
b 264 11 14 51 110
b 265 14 99 108 140 588
b 266 14 99 108 551 588
b 267 99 427 551 588
b 268 99 140 550 588
b 269 110 140 184 433 572
b 270 110 184 289 433 572
b 271 18 184 289 433 572
b 272 18 184 289 433 458
b 273 18 226 289 433 458
b 274 18 38 226 289 458
b 275 18 38 79 458
b 276 18 38 289 579
b 277 18 38 508 579
b 278 226 289 433 457 458
b 279 226 289 457 458 528
b 280 212 226 457 458 528
b 281 226 289 367 528
b 282 18 184 572 609
b 283 110 289 364 433
b 284 36 179 224 324 326 607
b 285 155 179 224 324 326 607
b 286 155 179 224 324 350 607
b 287 155 179 224 350 607 608
b 288 155 176 179 350 607 608
b 289 117 155 176 179 350 608
b 290 117 155 176 179 350 466
b 291 117 176 179 350 466 507
b 292 83 117 176 179 466 507
b 293 83 117 179 462 466 507
b 294 83 117 179 247 462
b 295 83 179 247 294 462
b 296 15 83 247 294 462
b 297 15 70 294 462
b 298 15 134 247 294
b 299 114 179 247 294 462
b 300 114 179 247 398
b 301 83 181 462 466 507
b 302 66 181 462 466 507
b 303 66 181 445 462
b 304 83 181 193 462
b 305 83 117 176 292 507
b 306 350 466 507 596
b 307 117 176 348 608
b 308 176 416 607 608
b 309 155 324 350 372 607
b 310 155 260 324 326
b 311 115 155 260 324
b 312 36 106 291 390 449
b 313 36 106 261 390 449
b 314 36 261 342 390 449
b 315 36 261 293 342 449
b 316 130 261 293 342 449
b 317 130 261 293 303
b 318 130 293 342 354
b 319 36 194 261 293 342
b 320 106 261 273 449
b 321 23 291 307 390 599
b 322 23 210 459 586 599
b 323 210 418 459 599
b 324 23 100 106 218 291 326 500 586
b 325 23 47 100 218 500 586
b 326 47 100 190 218 500 586
b 327 47 100 190 216 218 500
b 328 47 190 216 218 500 583
b 329 46 190 216 218 500 583
b 330 27 46 216 218 583
b 331 12 27 46 216 583
b 332 12 27 203 216
b 333 27 46 123 218
b 334 46 190 201 500 583
b 335 46 190 201 359 500
b 336 46 201 359 587
b 337 46 248 359 587
b 338 190 201 359 500 612
b 339 47 169 190 216 583
b 340 169 190 280 583
b 341 47 190 558 586
b 342 100 106 218 291 326 336
b 343 100 106 218 326 336 387
b 344 100 218 326 336 387 555
b 345 218 326 387 555 570
b 346 89 218 555 570
b 347 387 397 555 570
b 348 100 336 387 454 555
b 349 100 263 454 555
b 350 387 400 454 555
b 351 205 326 358 384 419 500 584 586
b 352 84 205 326 358 500 552 584 586
b 353 84 206 326 500 552 581
b 354 84 206 332 527 552 581 613
b 355 19 69 206 332 527 581 613
b 356 19 69 296 332 581 613
b 357 19 69 259 296 581
b 358 19 132 259 296 581
b 359 19 132 259 285 581
b 360 19 163 259 285
b 361 132 259 267 285
b 362 132 285 532 581
b 363 69 296 332 407 613
b 364 296 332 407 541
b 365 19 69 206 438 527 613
b 366 19 69 438 527 585 613
b 367 19 69 438 564 585
b 368 19 339 438 564
b 369 19 69 564 602
b 370 438 527 530 585 613
b 371 392 438 527 530
b 372 84 332 527 552 576 613
b 373 84 332 527 576 593 613
b 374 84 202 332 576 593
b 375 84 202 332 468 576
b 376 84 202 468 557 576
b 377 22 202 468 557 576
b 378 202 332 465 468
b 379 202 310 332 593
b 380 230 527 576 593 613
b 381 167 230 527 593 606 613
b 382 167 277 593 606 613
b 383 75 277 593 606
b 384 116 230 593 606
b 385 167 230 452 527 606
b 386 129 167 230 452 527
b 387 206 326 444 500 552 581
b 388 206 211 444 552
b 389 326 444 477 581
b 390 319 326 477 581
b 391 65 84 205 358 552 584 586
b 392 65 84 205 343 358 552 586
b 393 65 84 205 343 358 524
b 394 84 205 343 498 524
b 395 84 205 283 498
b 396 205 283 373 437 498
b 397 205 283 373 425 437
b 398 205 209 373 425
b 399 26 209 373 425
b 400 26 209 373 375
b 401 26 119 209 375
b 402 158 209 373 375
b 403 26 373 375 417
b 404 283 373 437 498 563
b 405 283 437 498 563 598
b 406 113 283 437 563 598
b 407 113 283 529 563 598
b 408 113 487 529 563 598
b 409 113 151 487 563 598
b 410 151 225 487 598
b 411 113 151 337 487
b 412 113 283 352 529 598
b 413 283 352 420 529 598
b 414 283 352 376 420
b 415 207 283 352 376
b 416 223 420 529 598
b 417 352 420 497 529
b 418 436 498 563 598
b 419 373 437 498 504 563
b 420 154 437 504 563
b 421 343 498 524 592
b 422 239 498 524 592
b 423 65 358 502 524
b 424 72 358 502 524
b 425 65 84 317 343 552 586
b 426 84 183 317 343
b 427 65 317 343 547 552 586
b 428 505 547 552 586
b 429 317 518 547 552
b 430 65 317 343 547 591
b 431 205 217 358 419
b 432 63 144 306 384 394 419 489 584
b 433 144 306 384 394 484 489 584
b 434 144 325 384 484 584
b 435 144 325 484 566
b 436 325 484 515 566
b 437 191 484 515 566
b 438 94 191 484 515
b 439 156 325 515 566
b 440 213 306 384 394 484 489
b 441 152 213 394 484 489
b 442 152 188 394 489
b 443 152 213 412 489
b 444 213 384 475 484
b 445 2 63 92 144 205 394 419 499
b 446 2 63 92 144 331 394 499
b 447 2 63 92 331 391 394 499
b 448 2 63 92 331 391 470 499
b 449 63 92 256 331 391 470 499
b 450 63 92 256 269 331 470 499
b 451 63 92 135 256 269 470 499
b 452 96 135 256 269 470
b 453 63 92 135 269 470 499 577
b 454 63 92 135 269 463 499 577
b 455 63 92 463 480 499 577
b 456 63 92 450 463 480 577
b 457 92 450 463 480 562 577
b 458 322 450 463 480 562 577
b 459 322 388 463 480 562 577
b 460 270 322 388 480 577
b 461 300 388 463 577
b 462 322 388 401 463 562
b 463 363 388 401 463 562
b 464 92 450 488 562
b 465 63 92 450 474 480
b 466 252 256 269 331
b 467 97 256 391 470
b 468 2 340 391 470 499
b 469 2 331 391 394 472
b 470 2 63 126 394 489 499
b 471 126 394 489 571
b 472 91 211 444 552
b 473 95 252 269 331
b 474 101 122 241 482
b 475 122 241 356 482
b 476 122 219 356 482
b 477 120 219 356 482
b 478 122 219 456 482
b 479 48 112 284 556
b 480 30 48 284 556
b 481 30 48 320 556
b 482 48 320 556 566
b 483 125 330 476 548
b 484 128 249 351 604
b 485 18 139 508 579
b 486 149 530 585 613
b 487 92 162 450 488
b 488 320 515 556 566
b 489 156 515 556 566
b 490 200 285 532 581
b 491 7 214 251 511
b 492 7 147 251 511
b 493 7 147 181 251
b 494 147 181 251 445
b 495 215 413 426 561
b 496 236 359 500 612
b 497 66 181 251 445
b 498 258 374 601 603
b 499 86 374 601 603
b 500 86 219 374 601
b 501 219 374 456 601
b 502 122 219 374 456
b 503 120 221 356 561
b 504 221 356 426 561
b 505 356 413 426 561
b 506 356 381 413 426
b 507 174 305 408 517
b 508 174 244 408 517
b 509 174 186 244 517
b 510 186 244 517 592
b 511 186 235 517 592
b 512 186 235 453 592
b 513 186 453 524 592
b 514 239 453 524 592
b 515 242 308 405 600
b 516 43 242 405 600
b 517 43 202 242 405
b 518 202 242 405 465
b 519 316 380 407 541
b 520 296 380 407 541
b 521 323 325 384 584
b 522 328 331 391 472
b 523 10 333 338 492
b 524 334 414 434 469
b 525 341 358 385 502
b 526 72 358 385 502
b 527 346 430 451 523
b 528 371 406 430 451
b 529 371 430 451 523
b 530 310 371 523
b 531 310 332 523
b 532 356 381 413 581
b 533 108 361 494 525
b 534 29 108 494 525
b 535 381 413 477 581
b 536 319 413 477 581
b 537 396 503 527 535
b 538 202 405 465 468
b 539 42 414 434 469
b 540 42 330 434 469
b 541 42 330 370 469 491
b 542 42 330 370 393 491
b 543 237 330 393 491
b 544 138 237 330 491
b 545 42 161 370 393
b 546 42 357 370 469
b 547 370 469 486 491
b 548 22 424 468 490
b 549 212 431 457 528
b 550 443 455 503 516
b 551 455 503 513 516
b 552 129 503 513 516
b 553 129 503 513 535
b 554 129 503 527 535
b 555 129 167 527 535
b 556 249 290 467 490
b 557 249 290 351 604
b 558 249 290 351 490
b 559 98 290 351 490
b 560 98 351 490 519
b 561 98 490 519 578
b 562 98 351 519 545
b 563 318 490 578
b 564 330 476 491 548
b 565 138 330 491 548
b 566 220 237 330 393
b 567 220 237 318
b 568 237 318 557
b 569 318 490 557
b 570 22 468 490 557
b 571 135 269 463 553
b 572 36 194 261 610
1 92
2 61
3 70
4 43
5 19
6 28
7 18
8 125
9 42
10 21
11 77
12 31
13 14
14 26
15 17
16 98
17 38
18 27
19 72
20 139
21 84
22 68
23 51
24 37
25 57
26 27
27 375
28 548
29 103
30 65
31 54
32 130
33 114
34 62
35 428
36 47
37 38
38 124
39 444
40 322
41 532
42 72
43 138
44 128
45 46
46 63
47 87
48 323
49 85
50 143
51 52
52 53
53 163
54 268
55 269
56 173
57 58
58 91
59 60
60 89
61 119
62 131
63 112
64 97
65 66
66 67
67 111
68 141
69 220
70 71
71 164
72 73
73 74
74 75
75 76
76 170
77 106
78 347
79 175
80 176
81 181
82 147
83 89
84 473
85 105
86 104
87 116
88 123
89 90
90 145
91 157
92 98
93 94
94 494
95 430
96 428
97 128
98 100
99 117
100 185
101 426
102 192
103 115
104 174
105 216
106 520
107 522
108 376
109 189
110 266
111 118
112 113
113 114
114 151
115 445
116 117
117 311
118 152
119 120
120 121
121 122
122 208
123 265
124 323
125 152
126 127
127 158
128 202
129 397
130 149
131 132
132 133
133 134
134 135
135 136
136 144
137 294
138 496
139 446
140 150
141 475
142 435
143 158
144 549
145 241
146 377
147 519
148 444
149 151
150 151
151 162
152 153
153 154
154 155
155 156
156 157
157 169
158 300
159 189
160 482
161 432
162 168
163 483
164 165
165 166
166 167
167 439
168 310
169 483
170 358
171 428
172 386
173 175
174 175
175 176
176 177
177 178
178 179
179 180
180 463
181 182
182 548
183 311
184 430
185 186
186 187
187 515
188 371
189 533
190 438
191 332
192 193
193 194
194 195
195 196
196 197
197 198
198 199
199 205
200 337
201 382
202 243
203 204
204 205
205 206
206 401
207 333
208 209
209 210
210 211
211 212
212 213
213 214
214 215
215 503
216 431
217 415
218 219
219 525
220 299
221 222
221 445
221 470
222 223
222 432
223 224
223 351
224 225
224 324
225 226
226 227
226 322
227 228
227 321
228 229
228 312
229 230
230 231
230 284
231 232
231 242
232 233
232 241
233 234
233 240
234 235
234 237
235 236
237 238
237 239
240 534
242 243
243 244
244 245
245 246
245 261
246 247
247 248
247 258
248 249
248 257
249 250
249 256
250 251
251 252
251 254
252 253
254 523
254 255
258 259
258 260
261 262
261 269
262 263
262 265
263 264
265 266
265 268
266 267
269 270
270 271
270 283
271 272
271 282
272 273
273 274
273 278
274 275
274 276
276 277
277 485
278 279
279 280
279 281
280 549
284 285
285 286
285 310
286 287
286 309
287 288
288 289
288 308
289 290
289 307
290 291
291 292
291 306
292 293
292 305
293 294
293 301
294 295
295 296
295 299
296 297
296 298
299 300
301 302
301 304
302 303
303 497
310 311
312 313
313 314
313 320
314 315
315 316
315 319
316 317
316 318
319 572
322 323
324 325
324 342
325 326
326 327
326 341
327 328
328 329
328 339
329 330
329 334
330 331
330 333
331 332
334 335
335 336
335 338
336 337
338 496
339 340
342 343
343 344
344 345
344 348
345 346
345 347
348 349
348 350
351 352
351 431
352 353
352 391
353 354
353 387
354 355
354 372
355 356
355 365
356 357
356 363
357 358
358 359
359 360
359 361
359 362
362 490
363 364
364 520
365 366
366 367
366 370
367 368
367 369
370 486
370 371
372 373
373 374
373 380
374 375
374 379
375 376
375 378
376 377
377 570
378 538
379 531
380 381
381 382
381 384
381 385
382 383
385 386
386 555
387 388
387 389
388 472
389 390
390 536
391 392
392 393
392 425
393 394
393 423
394 395
394 421
395 396
396 397
396 404
397 398
398 399
399 400
400 401
400 402
400 403
404 405
404 419
405 406
405 418
406 407
407 408
407 412
408 409
409 410
409 411
412 413
413 414
413 416
413 417
414 415
419 420
421 422
422 514
423 424
424 526
425 426
425 427
427 428
427 429
427 430
432 433
433 434
433 440
434 521
434 435
435 436
436 437
436 439
437 438
439 489
440 441
440 444
441 442
441 443
445 446
446 447
447 448
447 469
448 449
448 468
449 450
449 467
450 451
450 466
451 452
451 453
453 454
454 571
454 455
455 456
456 457
456 465
457 458
457 464
458 459
459 460
459 461
459 462
462 463
464 487
466 473
469 522
470 471
474 475
475 476
476 478
476 477
477 503
478 502
479 480
480 481
481 482
482 488
483 564
484 557
488 489
491 492
492 493
493 494
494 497
495 505
498 499
499 500
500 501
501 502
503 504
504 505
505 506
506 532
507 508
508 509
509 510
510 511
511 512
512 513
513 514
515 516
516 517
517 518
518 538
519 520
524 539
525 526
527 529
528 529
529 530
530 531
532 535
533 534
535 536
537 554
539 540
540 541
541 546
541 547
541 542
542 545
542 543
543 566
543 544
544 565
548 570
550 551
551 552
552 553
553 554
554 555
556 558
557 558
558 559
559 560
560 562
560 561
561 563
563 569
564 565
566 567
567 568
568 569
569 570
